objective value:                    0.131151681975525
h-1,0                                            0.01 	(obj:0)
h-1,2                                            0.01 	(obj:0)
h-1,3                                            0.01 	(obj:0)
h-1,5                                            0.01 	(obj:0)
h-1,6                                            0.01 	(obj:0)
h-1,8                                            0.01 	(obj:0)
h-1,10                                           0.01 	(obj:0)
h-1,11                                           0.01 	(obj:0)
h-1,12                                           0.01 	(obj:0)
h-1,13                                           0.01 	(obj:0)
h-1,14                                           0.01 	(obj:0)
h-1,15                                           0.01 	(obj:0)
h-1,18                                           0.01 	(obj:0)
h-1,19                                           0.01 	(obj:0)
h-1,21                                           0.01 	(obj:0)
h-1,23                                           0.01 	(obj:0)
h-1,24                                           0.01 	(obj:0)
h-1,26                                           0.01 	(obj:0)
h-1,28                                           0.01 	(obj:0)
h-1,29                                           0.01 	(obj:0)
h-1,37                                           0.01 	(obj:0)
h-1,39                                           0.01 	(obj:0)
h-1,40                                           0.01 	(obj:0)
h-1,41                                           0.01 	(obj:0)
h-1,43                                           0.01 	(obj:0)
h-1,44                                           0.01 	(obj:0)
h-1,45                                           0.01 	(obj:0)
h-1,55                                           0.01 	(obj:0)
h-1,56                                           0.01 	(obj:0)
h-1,57                                           0.01 	(obj:0)
h-1,75                                           0.01 	(obj:0)
h-1,80                                           0.01 	(obj:0)
h-1,85                                           0.01 	(obj:0)
h-1,89                                           0.01 	(obj:0)
h-1,95                                           0.01 	(obj:0)
h-1,96                                           0.01 	(obj:0)
h-1,98                                           0.01 	(obj:0)
h-1,99                                           0.01 	(obj:0)
h-1,101                                          0.01 	(obj:0)
h-1,105                                          0.01 	(obj:0)
h-1,107                                          0.01 	(obj:0)
h-1,108                                          0.01 	(obj:0)
h-1,109                                          0.01 	(obj:0)
h-1,111                                          0.01 	(obj:0)
h-1,112                                          0.01 	(obj:0)
h-1,113                                          0.01 	(obj:0)
h-1,114                                          0.01 	(obj:0)
h-1,115                                          0.01 	(obj:0)
h-1,118                                          0.01 	(obj:0)
h-1,119                                          0.01 	(obj:0)
h-1,120                                          0.01 	(obj:0)
h-1,121                                          0.01 	(obj:0)
h-1,122                                          0.01 	(obj:0)
h-1,123                                          0.01 	(obj:0)
h-1,124                                          0.01 	(obj:0)
h-1,125                                          0.01 	(obj:0)
h-1,126                                          0.01 	(obj:0)
h-1,127                                          0.01 	(obj:0)
h-1,128                             0.139019613862038 	(obj:0)
h-1,129                                             1 	(obj:0)
h-1,130                             0.437450984716415 	(obj:0)
h-1,131                                          0.01 	(obj:0)
h-1,132                                          0.01 	(obj:0)
h-1,133                                          0.01 	(obj:0)
h-1,134                                          0.01 	(obj:0)
h-1,136                                          0.01 	(obj:0)
h-1,137                                          0.01 	(obj:0)
h-1,138                                          0.01 	(obj:0)
h-1,139                                          0.01 	(obj:0)
h-1,140                                          0.01 	(obj:0)
h-1,141                                          0.01 	(obj:0)
h-1,142                                          0.01 	(obj:0)
h-1,143                                          0.01 	(obj:0)
h-1,144                                          0.01 	(obj:0)
h-1,145                                          0.01 	(obj:0)
h-1,147                                          0.01 	(obj:0)
h-1,148                                          0.01 	(obj:0)
h-1,149                                          0.01 	(obj:0)
h-1,150                                          0.01 	(obj:0)
h-1,151                                          0.01 	(obj:0)
h-1,152                                          0.01 	(obj:0)
h-1,153                                          0.01 	(obj:0)
h-1,155                                          0.01 	(obj:0)
h-1,156                             0.331176480054855 	(obj:0)
h-1,157                             0.978235294818878 	(obj:0)
h-1,158                             0.311568638086319 	(obj:0)
h-1,165                                          0.01 	(obj:0)
h-1,166                                          0.01 	(obj:0)
h-1,167                                          0.01 	(obj:0)
h-1,168                                          0.01 	(obj:0)
h-1,169                                          0.01 	(obj:0)
h-1,170                                          0.01 	(obj:0)
h-1,171                                          0.01 	(obj:0)
h-1,172                                          0.01 	(obj:0)
h-1,173                                          0.01 	(obj:0)
h-1,174                                          0.01 	(obj:0)
h-1,176                                          0.01 	(obj:0)
h-1,177                                          0.01 	(obj:0)
h-1,178                                          0.01 	(obj:0)
h-1,179                                          0.01 	(obj:0)
h-1,180                                          0.01 	(obj:0)
h-1,181                                          0.01 	(obj:0)
h-1,182                                          0.01 	(obj:0)
h-1,183                                          0.01 	(obj:0)
h-1,184                             0.539411792755127 	(obj:0)
h-1,185                             0.955098042488098 	(obj:0)
h-1,186                                          0.01 	(obj:0)
h-1,187                                          0.01 	(obj:0)
h-1,189                                          0.01 	(obj:0)
h-1,196                                          0.01 	(obj:0)
h-1,198                                          0.01 	(obj:0)
h-1,199                                          0.01 	(obj:0)
h-1,202                                          0.01 	(obj:0)
h-1,203                                          0.01 	(obj:0)
h-1,204                                          0.01 	(obj:0)
h-1,205                                          0.01 	(obj:0)
h-1,206                                          0.01 	(obj:0)
h-1,208                                          0.01 	(obj:0)
h-1,209                                          0.01 	(obj:0)
h-1,210                                          0.01 	(obj:0)
h-1,211                             0.186470592617989 	(obj:0)
h-1,212                              0.96686274766922 	(obj:0)
h-1,213                             0.598235318660736 	(obj:0)
h-1,214                                          0.01 	(obj:0)
h-1,215                                          0.01 	(obj:0)
h-1,216                                          0.01 	(obj:0)
h-1,224                                          0.01 	(obj:0)
h-1,225                                          0.01 	(obj:0)
h-1,226                                          0.01 	(obj:0)
h-1,227                                          0.01 	(obj:0)
h-1,228                                          0.01 	(obj:0)
h-1,229                                          0.01 	(obj:0)
h-1,232                                          0.01 	(obj:0)
h-1,235                                          0.01 	(obj:0)
h-1,236                                          0.01 	(obj:0)
h-1,237                                          0.01 	(obj:0)
h-1,238                                          0.01 	(obj:0)
h-1,239                             0.339411774873734 	(obj:0)
h-1,240                                             1 	(obj:0)
h-1,241                              0.25705882370472 	(obj:0)
h-1,242                                          0.01 	(obj:0)
h-1,243                                          0.01 	(obj:0)
h-1,245                                          0.01 	(obj:0)
h-1,246                                          0.01 	(obj:0)
h-1,253                                          0.01 	(obj:0)
h-1,255                                          0.01 	(obj:0)
h-1,256                                          0.01 	(obj:0)
h-1,257                                          0.01 	(obj:0)
h-1,258                                          0.01 	(obj:0)
h-1,259                                          0.01 	(obj:0)
h-1,260                                          0.01 	(obj:0)
h-1,261                                          0.01 	(obj:0)
h-1,262                                          0.01 	(obj:0)
h-1,263                                          0.01 	(obj:0)
h-1,264                                          0.01 	(obj:0)
h-1,265                                          0.01 	(obj:0)
h-1,266                                          0.01 	(obj:0)
h-1,267                             0.802156875133514 	(obj:0)
h-1,268                             0.864509811401367 	(obj:0)
h-1,269                            0.0531372560560703 	(obj:0)
h-1,270                                          0.01 	(obj:0)
h-1,271                                          0.01 	(obj:0)
h-1,272                                          0.01 	(obj:0)
h-1,274                                          0.01 	(obj:0)
h-1,281                                          0.01 	(obj:0)
h-1,283                                          0.01 	(obj:0)
h-1,285                                          0.01 	(obj:0)
h-1,291                                          0.01 	(obj:0)
h-1,294                             0.135490203499794 	(obj:0)
h-1,295                                             1 	(obj:0)
h-1,296                             0.857058832645416 	(obj:0)
h-1,297                                          0.01 	(obj:0)
h-1,298                                          0.01 	(obj:0)
h-1,299                                          0.01 	(obj:0)
h-1,300                                          0.01 	(obj:0)
h-1,301                                          0.01 	(obj:0)
h-1,302                                          0.01 	(obj:0)
h-1,303                                          0.01 	(obj:0)
h-1,308                                          0.01 	(obj:0)
h-1,309                                          0.01 	(obj:0)
h-1,310                                          0.01 	(obj:0)
h-1,311                                          0.01 	(obj:0)
h-1,314                                          0.01 	(obj:0)
h-1,315                                          0.01 	(obj:0)
h-1,322                             0.362549027204514 	(obj:0)
h-1,323                                             1 	(obj:0)
h-1,324                             0.774705896377563 	(obj:0)
h-1,325                                          0.01 	(obj:0)
h-1,326                                          0.01 	(obj:0)
h-1,327                                          0.01 	(obj:0)
h-1,328                                          0.01 	(obj:0)
h-1,329                                          0.01 	(obj:0)
h-1,330                                          0.01 	(obj:0)
h-1,331                                          0.01 	(obj:0)
h-1,336                                          0.01 	(obj:0)
h-1,338                                          0.01 	(obj:0)
h-1,340                                          0.01 	(obj:0)
h-1,345                                          0.01 	(obj:0)
h-1,350                             0.539019634723663 	(obj:0)
h-1,351                             0.986078431606293 	(obj:0)
h-1,352                             0.291960796117783 	(obj:0)
h-1,353                                          0.01 	(obj:0)
h-1,355                                          0.01 	(obj:0)
h-1,356                                          0.01 	(obj:0)
h-1,358                                          0.01 	(obj:0)
h-1,359                                          0.01 	(obj:0)
h-1,361                                          0.01 	(obj:0)
h-1,363                                          0.01 	(obj:0)
h-1,366                                          0.01 	(obj:0)
h-1,367                                          0.01 	(obj:0)
h-1,368                                          0.01 	(obj:0)
h-1,369                                          0.01 	(obj:0)
h-1,372                                          0.01 	(obj:0)
h-1,376                                          0.01 	(obj:0)
h-1,377                             0.213529413342476 	(obj:0)
h-1,378                             0.919411768913269 	(obj:0)
h-1,379                             0.813921580314636 	(obj:0)
h-1,380                            0.0413725508749485 	(obj:0)
h-1,382                                          0.01 	(obj:0)
h-1,384                                          0.01 	(obj:0)
h-1,387                                          0.01 	(obj:0)
h-1,389                                          0.01 	(obj:0)
h-1,390                                          0.01 	(obj:0)
h-1,391                                          0.01 	(obj:0)
h-1,393                                          0.01 	(obj:0)
h-1,394                                          0.01 	(obj:0)
h-1,402                                          0.01 	(obj:0)
h-1,405                             0.476274510622025 	(obj:0)
h-1,406                                          0.99 	(obj:0)
h-1,407                             0.637058844566345 	(obj:0)
h-1,411                                          0.01 	(obj:0)
h-1,413                                          0.01 	(obj:0)
h-1,417                                          0.01 	(obj:0)
h-1,418                                          0.01 	(obj:0)
h-1,419                                          0.01 	(obj:0)
h-1,421                                          0.01 	(obj:0)
h-1,423                                          0.01 	(obj:0)
h-1,424                                          0.01 	(obj:0)
h-1,425                                          0.01 	(obj:0)
h-1,426                                          0.01 	(obj:0)
h-1,433                             0.660588254928589 	(obj:0)
h-1,434                             0.986078431606293 	(obj:0)
h-1,435                             0.327647069692612 	(obj:0)
h-1,436                                          0.01 	(obj:0)
h-1,437                                          0.01 	(obj:0)
h-1,438                                          0.01 	(obj:0)
h-1,440                                          0.01 	(obj:0)
h-1,443                                          0.01 	(obj:0)
h-1,444                                          0.01 	(obj:0)
h-1,446                                          0.01 	(obj:0)
h-1,447                                          0.01 	(obj:0)
h-1,448                                          0.01 	(obj:0)
h-1,450                                          0.01 	(obj:0)
h-1,451                                          0.01 	(obj:0)
h-1,453                                          0.01 	(obj:0)
h-1,458                                          0.01 	(obj:0)
h-1,459                                          0.01 	(obj:0)
h-1,460                            0.0841176488995552 	(obj:0)
h-1,461                             0.899803926944733 	(obj:0)
h-1,462                             0.833137264251709 	(obj:0)
h-1,466                                          0.01 	(obj:0)
h-1,467                                          0.01 	(obj:0)
h-1,468                                          0.01 	(obj:0)
h-1,474                                          0.01 	(obj:0)
h-1,475                                          0.01 	(obj:0)
h-1,479                                          0.01 	(obj:0)
h-1,482                                          0.01 	(obj:0)
h-1,483                                          0.01 	(obj:0)
h-1,485                                          0.01 	(obj:0)
h-1,488                             0.460588237047195 	(obj:0)
h-1,489                             0.986078431606293 	(obj:0)
h-1,490                             0.613529434204102 	(obj:0)
h-1,493                                          0.01 	(obj:0)
h-1,495                                          0.01 	(obj:0)
h-1,497                                          0.01 	(obj:0)
h-1,498                                          0.01 	(obj:0)
h-1,499                                          0.01 	(obj:0)
h-1,501                                          0.01 	(obj:0)
h-1,502                                          0.01 	(obj:0)
h-1,503                                          0.01 	(obj:0)
h-1,504                                          0.01 	(obj:0)
h-1,507                                          0.01 	(obj:0)
h-1,512                                          0.01 	(obj:0)
h-1,514                                          0.01 	(obj:0)
h-1,515                                          0.01 	(obj:0)
h-1,516                             0.582156887054443 	(obj:0)
h-1,517                             0.986078431606293 	(obj:0)
h-1,518                             0.546862771511078 	(obj:0)
h-1,521                                          0.01 	(obj:0)
h-1,522                                          0.01 	(obj:0)
h-1,525                                          0.01 	(obj:0)
h-1,526                                          0.01 	(obj:0)
h-1,527                                          0.01 	(obj:0)
h-1,530                                          0.01 	(obj:0)
h-1,533                                          0.01 	(obj:0)
h-1,534                                          0.01 	(obj:0)
h-1,535                                          0.01 	(obj:0)
h-1,537                                          0.01 	(obj:0)
h-1,539                                          0.01 	(obj:0)
h-1,544                             0.904117653369904 	(obj:0)
h-1,545                             0.986078431606293 	(obj:0)
h-1,546                             0.248823543787003 	(obj:0)
h-1,551                                          0.01 	(obj:0)
h-1,552                                          0.01 	(obj:0)
h-1,555                                          0.01 	(obj:0)
h-1,557                                          0.01 	(obj:0)
h-1,558                                          0.01 	(obj:0)
h-1,563                                          0.01 	(obj:0)
h-1,564                                          0.01 	(obj:0)
h-1,565                                          0.01 	(obj:0)
h-1,566                                          0.01 	(obj:0)
h-1,567                                          0.01 	(obj:0)
h-1,571                             0.229215686917305 	(obj:0)
h-1,572                             0.974313726425171 	(obj:0)
h-1,573                                             1 	(obj:0)
h-1,574                             0.248823543787003 	(obj:0)
h-1,575                                          0.01 	(obj:0)
h-1,580                                          0.01 	(obj:0)
h-1,581                                          0.01 	(obj:0)
h-1,584                                          0.01 	(obj:0)
h-1,585                                          0.01 	(obj:0)
h-1,586                                          0.01 	(obj:0)
h-1,590                                          0.01 	(obj:0)
h-1,592                                          0.01 	(obj:0)
h-1,593                                          0.01 	(obj:0)
h-1,594                                          0.01 	(obj:0)
h-1,599                             0.562941203117371 	(obj:0)
h-1,600                                             1 	(obj:0)
h-1,601                             0.793921580314636 	(obj:0)
h-1,602                            0.0217647061124444 	(obj:0)
h-1,604                                          0.01 	(obj:0)
h-1,612                                          0.01 	(obj:0)
h-1,614                                          0.01 	(obj:0)
h-1,618                                          0.01 	(obj:0)
h-1,620                                          0.01 	(obj:0)
h-1,622                                          0.01 	(obj:0)
h-1,625                                          0.01 	(obj:0)
h-1,626                            0.0492156876623631 	(obj:0)
h-1,627                             0.833137264251709 	(obj:0)
h-1,628                                             1 	(obj:0)
h-1,629                             0.464509805440903 	(obj:0)
h-1,636                                          0.01 	(obj:0)
h-1,638                                          0.01 	(obj:0)
h-1,639                                          0.01 	(obj:0)
h-1,640                                          0.01 	(obj:0)
h-1,641                                          0.01 	(obj:0)
h-1,644                                          0.01 	(obj:0)
h-1,646                                          0.01 	(obj:0)
h-1,647                                          0.01 	(obj:0)
h-1,651                                          0.01 	(obj:0)
h-1,654                           0.00960784383118152 	(obj:0)
h-1,655                             0.766470601558685 	(obj:0)
h-1,656                             0.680196096897125 	(obj:0)
h-1,657                            0.0292156876623631 	(obj:0)
h-1,659                                          0.01 	(obj:0)
h-1,666                                          0.01 	(obj:0)
h-1,668                                          0.01 	(obj:0)
h-1,669                                          0.01 	(obj:0)
h-1,672                                          0.01 	(obj:0)
h-1,673                                          0.01 	(obj:0)
h-1,675                                          0.01 	(obj:0)
h-1,676                                          0.01 	(obj:0)
h-1,678                                          0.01 	(obj:0)
h-1,679                                          0.01 	(obj:0)
h-1,680                                          0.01 	(obj:0)
h-1,682                                          0.01 	(obj:0)
h-1,684                                          0.01 	(obj:0)
h-1,685                                          0.01 	(obj:0)
h-1,686                                          0.01 	(obj:0)
h-1,688                                          0.01 	(obj:0)
h-1,689                                          0.01 	(obj:0)
h-1,690                                          0.01 	(obj:0)
h-1,691                                          0.01 	(obj:0)
h-1,693                                          0.01 	(obj:0)
h-1,694                                          0.01 	(obj:0)
h-1,695                                          0.01 	(obj:0)
h-1,696                                          0.01 	(obj:0)
h-1,699                                          0.01 	(obj:0)
h-1,702                                          0.01 	(obj:0)
h-1,703                                          0.01 	(obj:0)
h-1,704                                          0.01 	(obj:0)
h-1,705                                          0.01 	(obj:0)
h-1,706                                          0.01 	(obj:0)
h-1,707                                          0.01 	(obj:0)
h-1,708                                          0.01 	(obj:0)
h-1,709                                          0.01 	(obj:0)
h-1,710                                          0.01 	(obj:0)
h-1,711                                          0.01 	(obj:0)
h-1,712                                          0.01 	(obj:0)
h-1,713                                          0.01 	(obj:0)
h-1,714                                          0.01 	(obj:0)
h-1,715                                          0.01 	(obj:0)
h-1,716                                          0.01 	(obj:0)
h-1,717                                          0.01 	(obj:0)
h-1,718                                          0.01 	(obj:0)
h-1,719                                          0.01 	(obj:0)
h-1,720                                          0.01 	(obj:0)
h-1,721                                          0.01 	(obj:0)
h-1,722                                          0.01 	(obj:0)
h-1,724                                          0.01 	(obj:0)
h-1,727                                          0.01 	(obj:0)
h-1,728                                          0.01 	(obj:0)
h-1,729                                          0.01 	(obj:0)
h-1,731                                          0.01 	(obj:0)
h-1,733                                          0.01 	(obj:0)
h-1,734                                          0.01 	(obj:0)
h-1,735                                          0.01 	(obj:0)
h-1,736                                          0.01 	(obj:0)
h-1,737                                          0.01 	(obj:0)
h-1,738                                          0.01 	(obj:0)
h-1,739                                          0.01 	(obj:0)
h-1,740                                          0.01 	(obj:0)
h-1,741                                          0.01 	(obj:0)
h-1,742                                          0.01 	(obj:0)
h-1,743                                          0.01 	(obj:0)
h-1,744                                          0.01 	(obj:0)
h-1,745                                          0.01 	(obj:0)
h-1,746                                          0.01 	(obj:0)
h-1,747                                          0.01 	(obj:0)
h-1,748                                          0.01 	(obj:0)
h-1,749                                          0.01 	(obj:0)
h-1,750                                          0.01 	(obj:0)
h-1,755                                          0.01 	(obj:0)
h-1,759                                          0.01 	(obj:0)
h-1,760                                          0.01 	(obj:0)
h-1,761                                          0.01 	(obj:0)
h-1,762                                          0.01 	(obj:0)
h-1,763                                          0.01 	(obj:0)
h-1,764                                          0.01 	(obj:0)
h-1,765                                          0.01 	(obj:0)
h-1,766                                          0.01 	(obj:0)
h-1,767                                          0.01 	(obj:0)
h-1,768                                          0.01 	(obj:0)
h-1,769                                          0.01 	(obj:0)
h-1,770                                          0.01 	(obj:0)
h-1,771                                          0.01 	(obj:0)
h-1,776                                          0.01 	(obj:0)
h-1,777                                          0.01 	(obj:0)
h-1,778                                          0.01 	(obj:0)
h-1,779                                          0.01 	(obj:0)
h-1,780                                          0.01 	(obj:0)
h-1,781                                          0.01 	(obj:0)
h-1,782                                          0.01 	(obj:0)
z0,0                                -5.88634989212795 	(obj:0)
a0,0                              0.00277119635836867 	(obj:0)
z0,1                                 12.9366958053257 	(obj:0)
a0,1                                0.999994081726554 	(obj:0)
z0,2                                 -13.322391967122 	(obj:0)
a0,2                             2.79751073865343e-06 	(obj:0)
z0,3                                 2.82679178692597 	(obj:0)
a0,3                                0.944108256895645 	(obj:0)
z0,4                                -9.87162853658333 	(obj:0)
a0,4                             6.13528767079649e-05 	(obj:0)
z1,0                                -23.6271062721841 	(obj:0)
z1,1                                  1.5095519546851 	(obj:0)
a1,1                                0.818989217557823 	(obj:-1)
z1,2                                -5.67583257866284 	(obj:0)
a1,2                              0.00341549134431479 	(obj:0)
z1,3                                 7.20330374612154 	(obj:0)
a1,3                                0.999255045397957 	(obj:0)
z1,4                                -32.8772297375995 	(obj:0)
z1,5                                -19.8621225054878 	(obj:0)
a1,5                             2.26726713622794e-09 	(obj:0)
z1,6                                -23.3349518441571 	(obj:0)
z1,7                                 2.94729737153516 	(obj:0)
a1,7                                0.950140899533348 	(obj:1)
z1,8                                -18.1263881752762 	(obj:0)
a1,8                             1.37456090131084e-08 	(obj:0)
z1,9                                -13.4268652861947 	(obj:0)
